%chk=c2h6.chk
# opt freq hf/sto-3g geom=connectivity

Title Card Required

0 1
 C                 -1.32132133    1.60660658    0.00000000
 H                 -0.96466691    0.59779658    0.00000000
 H                 -0.96464849    2.11100477   -0.87365150
 H                 -2.39132133    1.60661977    0.00000000
 C                 -0.80797911    2.33256286    1.25740497
 H                  0.26202089    2.33254953    1.25740471
 H                 -1.16463375    3.34137278    1.25740510
 H                 -1.16465181    1.82816420    2.13105626

 1 2 1.0 3 1.0 4 1.0 5 1.0
 2
 3
 4
 5 6 1.0 7 1.0 8 1.0
 6
 7
 8

