%chk=H2.chk
# opt freq hf/sto-3g geom=connectivity

Title Card Required

0 1
 H                 -0.63123124    0.04504504    0.00000000
 H                 -1.23123124    0.04504504    0.00000000

 1 2 1.0
 2

