%chk=h2o_dimer.chk
# opt freq hf/sto-3g geom=connectivity

Title Card Required

0 1
 O                 -1.27575500    0.09465400   -0.06402800
 H                 -1.68046100    0.12972400    0.83628600
 H                 -1.70887300   -0.71194200   -0.43090400
 O                  1.43137100   -0.10501700    0.06657300
 H                  1.69812400    0.69748200   -0.44479100
 H                  0.44628500   -0.03236000    0.01904900

 1 2 1.0 3 1.0
 2
 3
 4 5 1.0 6 1.0
 5
 6

