%chk=h2s_monomer.chk
# opt freq hf/sto-3g geom=connectivity

Title Card Required

0 1
 S                 -1.11111112    1.21621620    0.00000000
 H                  0.19888888    1.21621620    0.00000000
 H                 -1.54839811    2.45107655    0.00000000

 1 2 1.0 3 1.0
 2
 3

