%chk=cyclohexane_boat.chk
# opt freq hf/sto-3g geom=connectivity

Title Card Required

0 1
 C                 -4.34686427   -0.00625362    0.00000000
 C                 -2.82997427   -0.00625362    0.00000000
 C                 -2.25225227    1.39639638    0.00000000
 C                 -3.16513927    2.37703338    0.70521200
 C                 -4.50387227    2.49796238    0.00164600
 C                 -4.90806127    1.21379438   -0.69809900
 H                 -1.24835127    1.38962838    0.49858600
 H                 -2.46533127   -0.56508862    0.90147200
 H                 -2.45173627   -0.55633662   -0.90137200
 H                 -4.53692027    1.23111638   -1.75686600
 H                 -4.72076027   -0.02629762    1.05781200
 H                 -3.32610127    2.03278838    1.76082100
 H                 -2.67345527    3.38305438    0.75404800
 H                 -4.46069527    3.32625238   -0.75327300
 H                 -5.28627327    2.78099838    0.75367200
 H                 -6.02605327    1.14396338   -0.73822700
 H                 -4.72269327   -0.93468562   -0.50329800
 H                 -2.09629227    1.73770738   -1.05740600

 1 2 1.0 6 1.0 11 1.0 17 1.0
 2 3 1.0 8 1.0 9 1.0
 3 4 1.0 7 1.0 18 1.0
 4 5 1.0 12 1.0 13 1.0
 5 6 1.0 14 1.0 15 1.0
 6 10 1.0 16 1.0
 7
 8
 9
 10
 11
 12
 13
 14
 15
 16
 17
 18

