%chk=co2.chk
# opt freq hf/sto-3g geom=connectivity

Title Card Required

0 1
 C                 -0.51051051    0.97597596    0.00000000
 O                 -1.76891051    0.97597596    0.00000000
 O                  0.74788949    0.97597596    0.00000000

 1 2 2.0 3 2.0
 2
 3

