%chk=h2o_monomer.chk
# opt freq hf/sto-3g geom=connectivity

Title Card Required

0 1
 O                 -0.51051051    1.15615614    0.00000000
 H                  0.44948949    1.15615614    0.00000000
 H                 -0.83096510    2.06109197    0.00000000

 1 2 1.0 3 1.0
 2
 3

