%chk=o2.chk
# opt freq hf/sto-3g geom=connectivity

Title Card Required

0 1
 O                 -1.26126127    0.55555555    0.00000000
 O                 -2.42286127    0.55555555    0.00000000

 1 2 2.0
 2

