%chk=hcl.chk
# opt freq hf/sto-3g geom=connectivity

Title Card Required

0 1
 Cl                -0.48048048    0.91591590    0.00000000
 H                 -1.77048048    0.91591590    0.00000000

 1 2 1.0
 2

