%chk=nacl.chk
# opt freq hf/sto-3g geom=connectivity

Title Card Required

0 1
 Na                -1.53153154    1.45645643    0.00000000
 Cl                -3.92153154    1.45645643    0.00000000

 1 2 1.0
 2

