%chk=naoh.chk
# opt freq hf/sto-3g geom=connectivity

Title Card Required

0 1
 Na                -0.64446731    1.79304949    0.00000000
 O                 -2.63057058    1.24624623    0.00000000
 H                 -3.17933896    2.03393479    0.00000000

 1 2 1.0
 2 3 1.0
 3

